proyfinal/src/viki/013/experimentInOfficeAgust.take6.output/4e90c69a-63a3-4183-ae15-1bfd21181154.als.dat
{'cnf.clauses': '118081',
 'cnf.totvars': '69608',
 'conflict literals': '521',
 'conflicts': '101',
 'decisions': '4546',
 'memused.mb': '15.41',
 'outcome': 'UNSAT',
 'propagations': '133102',
 'restarts': '1',
 'solver.msecs': 42,
 'task.msecs': 96}
