proyfinal/src/viki/013/experimentInOfficeAgust.take6.output/4e90c69a-63a3-4183-ae15-1bfd21181154.als.out
Reading from standard input... Use '--help' for help.
============================[ Problem Statistics ]=============================
|                                                                             |
|  Number of variables:         69608                                         |
|  Number of clauses:          118081                                         |
|  Parse time:                   0.03 s                                       |
|                                                                             |
============================[ Search Statistics ]==============================
| Conflicts |          ORIGINAL         |          LEARNT          | Progress |
|           |    Vars  Clauses Literals |    Limit  Clauses Lit/Cl |          |
===============================================================================
|       100 |   53566    81087   200574 |    29731       87      6 | 23.046 % |
===============================================================================
restarts              : 1
conflicts             : 101            (2352 /sec)
decisions             : 4546           (0.00 % random) (105861 /sec)
propagations          : 133102         (3099504 /sec)
conflict literals     : 521            (23.94 % deleted)
Memory used           : 15.41 MB
CPU time              : 0.042943 s

UNSATISFIABLE
